100
75 55
7 75
77 1
51 25
81 25
59 37
93 45
43 21
35 53
77 63
37 13
37 51
27 31
95 31
87 43
23 65
9 51
73 81
3 1
41 61
29 81
51 95
49 25
81 53
7 51
21 5
91 35
17 81
61 69
27 97
83 23
21 93
59 31
27 53
9 91
11 27
59 41
67 1
77 39
47 29
3 89
33 87
17 45
91 41
23 3
97 61
DEMAND_SECTION Optimal value: 914
0 
12 
26 
1 
20 
2 
13 
20 
7 
10 
15 
7 
24 
10 
12 
23 
13 
19 
9 
12 
6 
9 
22 
18 
19 
20 
24 
10 
4 
20 
15 
13 
12 
3 
7 
18 
3 
23 
1 
17 
13 
6 
22 
20 
21 
2 